372
274
169
1136
338
96
31
202
193
363
70
68
0
0
496
124
58
600
195
649
36
244
224
120
62
54
871
193
394
46
30
114
87
87
6712
92
51
93
55
372
253
450
605
76
219
316
365
142
162
54
61
629
57
78
141
107
2227
70
57
55
165
144
236
81
58
128
123
26
50
199
377
89
182
195
68
548
128
173
0
66
292
113
224
178
48
109
183
536
234
110
0
52
86
433
75
103
76
0
145
52
